200 10
0 91 1 91 2 91 3 91 4 91 5 91 6 91 7 91 8 91 9 91 
0 91 1 91 2 91 3 91 4 91 5 91 6 91 7 91 8 91 9 91 
0 91 1 91 2 91 3 91 4 91 5 91 6 91 7 91 8 91 9 91 
0 91 1 91 2 91 3 91 4 91 5 91 6 91 7 91 8 91 9 91 
0 91 1 91 2 91 3 91 4 91 5 91 6 91 7 91 8 91 9 91 
0 91 1 91 2 91 3 91 4 91 5 91 6 91 7 91 8 91 9 91 
0 91 1 91 2 91 3 91 4 91 5 91 6 91 7 91 8 91 9 91 
0 91 1 91 2 91 3 91 4 91 5 91 6 91 7 91 8 91 9 91 
0 91 1 91 2 91 3 91 4 91 5 91 6 91 7 91 8 91 9 91 
0 91 1 91 2 91 3 91 4 91 5 91 6 91 7 91 8 91 9 91 
0 91 1 91 2 91 3 91 4 91 5 91 6 91 7 91 8 91 9 91 
0 91 1 91 2 91 3 91 4 91 5 91 6 91 7 91 8 91 9 91 
0 91 1 91 2 91 3 91 4 91 5 91 6 91 7 91 8 91 9 91 
0 91 1 91 2 91 3 91 4 91 5 91 6 91 7 91 8 91 9 91 
0 91 1 91 2 91 3 91 4 91 5 91 6 91 7 91 8 91 9 91 
0 91 1 91 2 91 3 91 4 91 5 91 6 91 7 91 8 91 9 91 
0 91 1 91 2 91 3 91 4 91 5 91 6 91 7 91 8 91 9 91 
0 91 1 91 2 91 3 91 4 91 5 91 6 91 7 91 8 91 9 91 
0 91 1 91 2 91 3 91 4 91 5 91 6 91 7 91 8 91 9 91 
0 91 1 91 2 91 3 91 4 91 5 91 6 91 7 91 8 91 9 91 
0 91 1 91 2 91 3 91 4 91 5 91 6 91 7 91 8 91 9 91 
0 91 1 91 2 91 3 91 4 91 5 91 6 91 7 91 8 91 9 91 
0 91 1 91 2 91 3 91 4 91 5 91 6 91 7 91 8 91 9 91 
0 91 1 91 2 91 3 91 4 91 5 91 6 91 7 91 8 91 9 91 
0 91 1 91 2 91 3 91 4 91 5 91 6 91 7 91 8 91 9 91 
0 91 1 91 2 91 3 91 4 91 5 91 6 91 7 91 8 91 9 91 
0 91 1 91 2 91 3 91 4 91 5 91 6 91 7 91 8 91 9 91 
0 91 1 91 2 91 3 91 4 91 5 91 6 91 7 91 8 91 9 91 
0 91 1 91 2 91 3 91 4 91 5 91 6 91 7 91 8 91 9 91 
0 91 1 91 2 91 3 91 4 91 5 91 6 91 7 91 8 91 9 91 
0 91 1 91 2 91 3 91 4 91 5 91 6 91 7 91 8 91 9 91 
0 91 1 91 2 91 3 91 4 91 5 91 6 91 7 91 8 91 9 91 
0 91 1 91 2 91 3 91 4 91 5 91 6 91 7 91 8 91 9 91 
0 91 1 91 2 91 3 91 4 91 5 91 6 91 7 91 8 91 9 91 
0 91 1 91 2 91 3 91 4 91 5 91 6 91 7 91 8 91 9 91 
0 91 1 91 2 91 3 91 4 91 5 91 6 91 7 91 8 91 9 91 
0 91 1 91 2 91 3 91 4 91 5 91 6 91 7 91 8 91 9 91 
0 91 1 91 2 91 3 91 4 91 5 91 6 91 7 91 8 91 9 91 
0 91 1 91 2 91 3 91 4 91 5 91 6 91 7 91 8 91 9 91 
0 91 1 91 2 91 3 91 4 91 5 91 6 91 7 91 8 91 9 91 
0 91 1 91 2 91 3 91 4 91 5 91 6 91 7 91 8 91 9 91 
0 91 1 91 2 91 3 91 4 91 5 91 6 91 7 91 8 91 9 91 
0 91 1 91 2 91 3 91 4 91 5 91 6 91 7 91 8 91 9 91 
0 91 1 91 2 91 3 91 4 91 5 91 6 91 7 91 8 91 9 91 
0 91 1 91 2 91 3 91 4 91 5 91 6 91 7 91 8 91 9 91 
0 91 1 91 2 91 3 91 4 91 5 91 6 91 7 91 8 91 9 91 
0 91 1 91 2 91 3 91 4 91 5 91 6 91 7 91 8 91 9 91 
0 91 1 91 2 91 3 91 4 91 5 91 6 91 7 91 8 91 9 91 
0 91 1 91 2 91 3 91 4 91 5 91 6 91 7 91 8 91 9 91 
0 91 1 91 2 91 3 91 4 91 5 91 6 91 7 91 8 91 9 91 
0 91 1 91 2 91 3 91 4 91 5 91 6 91 7 91 8 91 9 91 
0 91 1 91 2 91 3 91 4 91 5 91 6 91 7 91 8 91 9 91 
0 91 1 91 2 91 3 91 4 91 5 91 6 91 7 91 8 91 9 91 
0 91 1 91 2 91 3 91 4 91 5 91 6 91 7 91 8 91 9 91 
0 91 1 91 2 91 3 91 4 91 5 91 6 91 7 91 8 91 9 91 
0 91 1 91 2 91 3 91 4 91 5 91 6 91 7 91 8 91 9 91 
0 91 1 91 2 91 3 91 4 91 5 91 6 91 7 91 8 91 9 91 
0 91 1 91 2 91 3 91 4 91 5 91 6 91 7 91 8 91 9 91 
0 91 1 91 2 91 3 91 4 91 5 91 6 91 7 91 8 91 9 91 
0 91 1 91 2 91 3 91 4 91 5 91 6 91 7 91 8 91 9 91 
0 91 1 91 2 91 3 91 4 91 5 91 6 91 7 91 8 91 9 91 
0 91 1 91 2 91 3 91 4 91 5 91 6 91 7 91 8 91 9 91 
0 91 1 91 2 91 3 91 4 91 5 91 6 91 7 91 8 91 9 91 
0 91 1 91 2 91 3 91 4 91 5 91 6 91 7 91 8 91 9 91 
0 91 1 91 2 91 3 91 4 91 5 91 6 91 7 91 8 91 9 91 
0 91 1 91 2 91 3 91 4 91 5 91 6 91 7 91 8 91 9 91 
0 91 1 91 2 91 3 91 4 91 5 91 6 91 7 91 8 91 9 91 
0 91 1 91 2 91 3 91 4 91 5 91 6 91 7 91 8 91 9 91 
0 91 1 91 2 91 3 91 4 91 5 91 6 91 7 91 8 91 9 91 
0 91 1 91 2 91 3 91 4 91 5 91 6 91 7 91 8 91 9 91 
0 91 1 91 2 91 3 91 4 91 5 91 6 91 7 91 8 91 9 91 
0 91 1 91 2 91 3 91 4 91 5 91 6 91 7 91 8 91 9 91 
0 91 1 91 2 91 3 91 4 91 5 91 6 91 7 91 8 91 9 91 
0 91 1 91 2 91 3 91 4 91 5 91 6 91 7 91 8 91 9 91 
0 91 1 91 2 91 3 91 4 91 5 91 6 91 7 91 8 91 9 91 
0 91 1 91 2 91 3 91 4 91 5 91 6 91 7 91 8 91 9 91 
0 91 1 91 2 91 3 91 4 91 5 91 6 91 7 91 8 91 9 91 
0 91 1 91 2 91 3 91 4 91 5 91 6 91 7 91 8 91 9 91 
0 91 1 91 2 91 3 91 4 91 5 91 6 91 7 91 8 91 9 91 
0 91 1 91 2 91 3 91 4 91 5 91 6 91 7 91 8 91 9 91 
0 91 1 91 2 91 3 91 4 91 5 91 6 91 7 91 8 91 9 91 
0 91 1 91 2 91 3 91 4 91 5 91 6 91 7 91 8 91 9 91 
0 91 1 91 2 91 3 91 4 91 5 91 6 91 7 91 8 91 9 91 
0 91 1 91 2 91 3 91 4 91 5 91 6 91 7 91 8 91 9 91 
0 91 1 91 2 91 3 91 4 91 5 91 6 91 7 91 8 91 9 91 
0 91 1 91 2 91 3 91 4 91 5 91 6 91 7 91 8 91 9 91 
0 91 1 91 2 91 3 91 4 91 5 91 6 91 7 91 8 91 9 91 
0 91 1 91 2 91 3 91 4 91 5 91 6 91 7 91 8 91 9 91 
0 91 1 91 2 91 3 91 4 91 5 91 6 91 7 91 8 91 9 91 
0 91 1 91 2 91 3 91 4 91 5 91 6 91 7 91 8 91 9 91 
0 91 1 91 2 91 3 91 4 91 5 91 6 91 7 91 8 91 9 91 
0 91 1 91 2 91 3 91 4 91 5 91 6 91 7 91 8 91 9 91 
0 91 1 91 2 91 3 91 4 91 5 91 6 91 7 91 8 91 9 91 
0 91 1 91 2 91 3 91 4 91 5 91 6 91 7 91 8 91 9 91 
0 91 1 91 2 91 3 91 4 91 5 91 6 91 7 91 8 91 9 91 
0 91 1 91 2 91 3 91 4 91 5 91 6 91 7 91 8 91 9 91 
0 91 1 91 2 91 3 91 4 91 5 91 6 91 7 91 8 91 9 91 
0 91 1 91 2 91 3 91 4 91 5 91 6 91 7 91 8 91 9 91 
0 91 1 91 2 91 3 91 4 91 5 91 6 91 7 91 8 91 9 91 
0 91 1 91 2 91 3 91 4 91 5 91 6 91 7 91 8 91 9 91 
0 91 1 91 2 91 3 91 4 91 5 91 6 91 7 91 8 91 9 91 
0 91 1 91 2 91 3 91 4 91 5 91 6 91 7 91 8 91 9 91 
0 91 1 91 2 91 3 91 4 91 5 91 6 91 7 91 8 91 9 91 
0 91 1 91 2 91 3 91 4 91 5 91 6 91 7 91 8 91 9 91 
0 91 1 91 2 91 3 91 4 91 5 91 6 91 7 91 8 91 9 91 
0 91 1 91 2 91 3 91 4 91 5 91 6 91 7 91 8 91 9 91 
0 91 1 91 2 91 3 91 4 91 5 91 6 91 7 91 8 91 9 91 
0 91 1 91 2 91 3 91 4 91 5 91 6 91 7 91 8 91 9 91 
0 91 1 91 2 91 3 91 4 91 5 91 6 91 7 91 8 91 9 91 
0 91 1 91 2 91 3 91 4 91 5 91 6 91 7 91 8 91 9 91 
0 91 1 91 2 91 3 91 4 91 5 91 6 91 7 91 8 91 9 91 
0 91 1 91 2 91 3 91 4 91 5 91 6 91 7 91 8 91 9 91 
0 91 1 91 2 91 3 91 4 91 5 91 6 91 7 91 8 91 9 91 
0 91 1 91 2 91 3 91 4 91 5 91 6 91 7 91 8 91 9 91 
0 91 1 91 2 91 3 91 4 91 5 91 6 91 7 91 8 91 9 91 
0 91 1 91 2 91 3 91 4 91 5 91 6 91 7 91 8 91 9 91 
0 91 1 91 2 91 3 91 4 91 5 91 6 91 7 91 8 91 9 91 
0 91 1 91 2 91 3 91 4 91 5 91 6 91 7 91 8 91 9 91 
0 91 1 91 2 91 3 91 4 91 5 91 6 91 7 91 8 91 9 91 
0 91 1 91 2 91 3 91 4 91 5 91 6 91 7 91 8 91 9 91 
0 91 1 91 2 91 3 91 4 91 5 91 6 91 7 91 8 91 9 91 
0 91 1 91 2 91 3 91 4 91 5 91 6 91 7 91 8 91 9 91 
0 91 1 91 2 91 3 91 4 91 5 91 6 91 7 91 8 91 9 91 
0 91 1 91 2 91 3 91 4 91 5 91 6 91 7 91 8 91 9 91 
0 91 1 91 2 91 3 91 4 91 5 91 6 91 7 91 8 91 9 91 
0 91 1 91 2 91 3 91 4 91 5 91 6 91 7 91 8 91 9 91 
0 91 1 91 2 91 3 91 4 91 5 91 6 91 7 91 8 91 9 91 
0 91 1 91 2 91 3 91 4 91 5 91 6 91 7 91 8 91 9 91 
0 91 1 91 2 91 3 91 4 91 5 91 6 91 7 91 8 91 9 91 
0 91 1 91 2 91 3 91 4 91 5 91 6 91 7 91 8 91 9 91 
0 91 1 91 2 91 3 91 4 91 5 91 6 91 7 91 8 91 9 91 
0 91 1 91 2 91 3 91 4 91 5 91 6 91 7 91 8 91 9 91 
0 91 1 91 2 91 3 91 4 91 5 91 6 91 7 91 8 91 9 91 
0 91 1 91 2 91 3 91 4 91 5 91 6 91 7 91 8 91 9 91 
0 91 1 91 2 91 3 91 4 91 5 91 6 91 7 91 8 91 9 91 
0 91 1 91 2 91 3 91 4 91 5 91 6 91 7 91 8 91 9 91 
0 91 1 91 2 91 3 91 4 91 5 91 6 91 7 91 8 91 9 91 
0 91 1 91 2 91 3 91 4 91 5 91 6 91 7 91 8 91 9 91 
0 91 1 91 2 91 3 91 4 91 5 91 6 91 7 91 8 91 9 91 
0 91 1 91 2 91 3 91 4 91 5 91 6 91 7 91 8 91 9 91 
0 91 1 91 2 91 3 91 4 91 5 91 6 91 7 91 8 91 9 91 
0 91 1 91 2 91 3 91 4 91 5 91 6 91 7 91 8 91 9 91 
0 91 1 91 2 91 3 91 4 91 5 91 6 91 7 91 8 91 9 91 
0 91 1 91 2 91 3 91 4 91 5 91 6 91 7 91 8 91 9 91 
0 91 1 91 2 91 3 91 4 91 5 91 6 91 7 91 8 91 9 91 
0 91 1 91 2 91 3 91 4 91 5 91 6 91 7 91 8 91 9 91 
0 91 1 91 2 91 3 91 4 91 5 91 6 91 7 91 8 91 9 91 
0 91 1 91 2 91 3 91 4 91 5 91 6 91 7 91 8 91 9 91 
0 91 1 91 2 91 3 91 4 91 5 91 6 91 7 91 8 91 9 91 
0 91 1 91 2 91 3 91 4 91 5 91 6 91 7 91 8 91 9 91 
0 91 1 91 2 91 3 91 4 91 5 91 6 91 7 91 8 91 9 91 
0 91 1 91 2 91 3 91 4 91 5 91 6 91 7 91 8 91 9 91 
0 91 1 91 2 91 3 91 4 91 5 91 6 91 7 91 8 91 9 91 
0 91 1 91 2 91 3 91 4 91 5 91 6 91 7 91 8 91 9 91 
0 91 1 91 2 91 3 91 4 91 5 91 6 91 7 91 8 91 9 91 
0 91 1 91 2 91 3 91 4 91 5 91 6 91 7 91 8 91 9 91 
0 91 1 91 2 91 3 91 4 91 5 91 6 91 7 91 8 91 9 91 
0 91 1 91 2 91 3 91 4 91 5 91 6 91 7 91 8 91 9 91 
0 91 1 91 2 91 3 91 4 91 5 91 6 91 7 91 8 91 9 91 
0 91 1 91 2 91 3 91 4 91 5 91 6 91 7 91 8 91 9 91 
0 91 1 91 2 91 3 91 4 91 5 91 6 91 7 91 8 91 9 91 
0 91 1 91 2 91 3 91 4 91 5 91 6 91 7 91 8 91 9 91 
0 91 1 91 2 91 3 91 4 91 5 91 6 91 7 91 8 91 9 91 
0 91 1 91 2 91 3 91 4 91 5 91 6 91 7 91 8 91 9 91 
0 91 1 91 2 91 3 91 4 91 5 91 6 91 7 91 8 91 9 91 
0 91 1 91 2 91 3 91 4 91 5 91 6 91 7 91 8 91 9 91 
0 91 1 91 2 91 3 91 4 91 5 91 6 91 7 91 8 91 9 91 
0 91 1 91 2 91 3 91 4 91 5 91 6 91 7 91 8 91 9 91 
0 91 1 91 2 91 3 91 4 91 5 91 6 91 7 91 8 91 9 91 
0 91 1 91 2 91 3 91 4 91 5 91 6 91 7 91 8 91 9 91 
0 91 1 91 2 91 3 91 4 91 5 91 6 91 7 91 8 91 9 91 
0 91 1 91 2 91 3 91 4 91 5 91 6 91 7 91 8 91 9 91 
0 91 1 91 2 91 3 91 4 91 5 91 6 91 7 91 8 91 9 91 
0 91 1 91 2 91 3 91 4 91 5 91 6 91 7 91 8 91 9 91 
0 91 1 91 2 91 3 91 4 91 5 91 6 91 7 91 8 91 9 91 
0 91 1 91 2 91 3 91 4 91 5 91 6 91 7 91 8 91 9 91 
0 91 1 91 2 91 3 91 4 91 5 91 6 91 7 91 8 91 9 91 
0 91 1 91 2 91 3 91 4 91 5 91 6 91 7 91 8 91 9 91 
0 91 1 91 2 91 3 91 4 91 5 91 6 91 7 91 8 91 9 91 
0 91 1 91 2 91 3 91 4 91 5 91 6 91 7 91 8 91 9 91 
0 91 1 91 2 91 3 91 4 91 5 91 6 91 7 91 8 91 9 91 
0 91 1 91 2 91 3 91 4 91 5 91 6 91 7 91 8 91 9 91 
0 91 1 91 2 91 3 91 4 91 5 91 6 91 7 91 8 91 9 91 
0 91 1 91 2 91 3 91 4 91 5 91 6 91 7 91 8 91 9 91 
0 91 1 91 2 91 3 91 4 91 5 91 6 91 7 91 8 91 9 91 
0 91 1 91 2 91 3 91 4 91 5 91 6 91 7 91 8 91 9 91 
0 91 1 91 2 91 3 91 4 91 5 91 6 91 7 91 8 91 9 91 
0 91 1 91 2 91 3 91 4 91 5 91 6 91 7 91 8 91 9 91 
0 91 1 91 2 91 3 91 4 91 5 91 6 91 7 91 8 91 9 91 
0 91 1 91 2 91 3 91 4 91 5 91 6 91 7 91 8 91 9 91 
0 91 1 91 2 91 3 91 4 91 5 91 6 91 7 91 8 91 9 91 
0 91 1 91 2 91 3 91 4 91 5 91 6 91 7 91 8 91 9 91 
0 91 1 91 2 91 3 91 4 91 5 91 6 91 7 91 8 91 9 91 
0 91 1 91 2 91 3 91 4 91 5 91 6 91 7 91 8 91 9 91 
0 91 1 91 2 91 3 91 4 91 5 91 6 91 7 91 8 91 9 91 
0 91 1 91 2 91 3 91 4 91 5 91 6 91 7 91 8 91 9 91 
0 91 1 91 2 91 3 91 4 91 5 91 6 91 7 91 8 91 9 91 
0 91 1 91 2 91 3 91 4 91 5 91 6 91 7 91 8 91 9 91 
0 91 1 91 2 91 3 91 4 91 5 91 6 91 7 91 8 91 9 91 
0 91 1 91 2 91 3 91 4 91 5 91 6 91 7 91 8 91 9 91 
